unknown
(:reason-unknown "(incomplete quantifiers)")
(((ControlFlow 0 0) 27591))
(((ControlFlow 0 27591) 21922))
(((ControlFlow 0 21922) 21944))
(((ControlFlow 0 21944) 22078))
(((ControlFlow 0 22078) (- 27928)))
unknown
(:reason-unknown "(incomplete quantifiers)")
(((ControlFlow 0 0) 27591))
(((ControlFlow 0 27591) 21922))
(((ControlFlow 0 21922) 21944))
(((ControlFlow 0 21944) 22078))
(((ControlFlow 0 22078) (- 28014)))
unknown
(:reason-unknown "(incomplete quantifiers)")
(((ControlFlow 0 0) 27591))
(((ControlFlow 0 27591) 21922))
(((ControlFlow 0 21922) 21944))
(((ControlFlow 0 21944) 22078))
(((ControlFlow 0 22078) (- 27949)))
unsat
unknown
(:reason-unknown "(incomplete quantifiers)")
(((ControlFlow 0 0) 28082))
(((ControlFlow 0 28082) 22446))
(((ControlFlow 0 22446) 22468))
(((ControlFlow 0 22468) 22602))
(((ControlFlow 0 22602) (- 28442)))
unsat
unknown
(:reason-unknown "(incomplete quantifiers)")
(((ControlFlow 0 0) 28554))
(((ControlFlow 0 28554) 22979))
(((ControlFlow 0 22979) 23001))
(((ControlFlow 0 23001) 23135))
(((ControlFlow 0 23135) (- 28891)))
unknown
(:reason-unknown "(incomplete quantifiers)")
(((ControlFlow 0 0) 28554))
(((ControlFlow 0 28554) 22979))
(((ControlFlow 0 22979) 23001))
(((ControlFlow 0 23001) 23135))
(((ControlFlow 0 23135) (- 28977)))
unknown
(:reason-unknown "(incomplete quantifiers)")
(((ControlFlow 0 0) 28554))
(((ControlFlow 0 28554) 22979))
(((ControlFlow 0 22979) 23001))
(((ControlFlow 0 23001) 23135))
(((ControlFlow 0 23135) (- 28912)))
unsat
unknown
(:reason-unknown "(incomplete quantifiers)")
(((ControlFlow 0 0) 29022))
(((ControlFlow 0 29022) 23503))
(((ControlFlow 0 23503) 23525))
(((ControlFlow 0 23525) 23659))
(((ControlFlow 0 23659) (- 29449)))
unsat
unknown
(:reason-unknown "(incomplete quantifiers)")
(((ControlFlow 0 0) 29494))
(((ControlFlow 0 29494) 24036))
(((ControlFlow 0 24036) 24058))
(((ControlFlow 0 24058) 24192))
(((ControlFlow 0 24192) (- 29831)))
unknown
(:reason-unknown "(incomplete quantifiers)")
(((ControlFlow 0 0) 29494))
(((ControlFlow 0 29494) 24036))
(((ControlFlow 0 24036) 24058))
(((ControlFlow 0 24058) 24192))
(((ControlFlow 0 24192) (- 29917)))
unknown
(:reason-unknown "(incomplete quantifiers)")
(((ControlFlow 0 0) 29494))
(((ControlFlow 0 29494) 24036))
(((ControlFlow 0 24036) 24058))
(((ControlFlow 0 24058) 24192))
(((ControlFlow 0 24192) (- 29852)))
unsat
unsat
unknown
(:reason-unknown "(incomplete quantifiers)")
(((ControlFlow 0 0) 30426))
(((ControlFlow 0 30426) 25102))
(((ControlFlow 0 25102) 25124))
(((ControlFlow 0 25124) 25258))
(((ControlFlow 0 25258) (- 30786)))
unsat
unknown
(:reason-unknown "(incomplete quantifiers)")
(((ControlFlow 0 0) 30898))
(((ControlFlow 0 30898) 25635))
(((ControlFlow 0 25635) 25657))
(((ControlFlow 0 25657) 25791))
(((ControlFlow 0 25791) (- 31235)))
unknown
(:reason-unknown "(incomplete quantifiers)")
(((ControlFlow 0 0) 30898))
(((ControlFlow 0 30898) 25635))
(((ControlFlow 0 25635) 25657))
(((ControlFlow 0 25657) 25791))
(((ControlFlow 0 25791) (- 31321)))
unknown
(:reason-unknown "(incomplete quantifiers)")
(((ControlFlow 0 0) 30898))
(((ControlFlow 0 30898) 25635))
(((ControlFlow 0 25635) 25657))
(((ControlFlow 0 25657) 25791))
(((ControlFlow 0 25791) (- 31256)))
unsat
unknown
(:reason-unknown "(incomplete quantifiers)")
(((ControlFlow 0 0) 31366))
(((ControlFlow 0 31366) 26159))
(((ControlFlow 0 26159) 26181))
(((ControlFlow 0 26181) 26315))
(((ControlFlow 0 26315) (- 31793)))
unsat
unsat
